\ENCODING=ISO-8859-1
\Problem name: IloCplex

Minimize
 OBJ00000: - 0.003 COL00001#0 - 0.002 COL00002#1 - 0.005 COL00003#2
           - 0.0008 COL00004#3 - 0.003 COL00005#4 - 0.0038 COL00006#5
           - 0.0021 COL00007#6 - 0.0014 COL00008#7 - 0.0012 COL00009#8
           - 0.0022 COL00010#9 - 0.0029 COL00011#10 - 0.0035 COL00012#11
           - 0.0035 COL00013#12 - 0.0026 COL00014#13 - 0.0032 COL00015#14
           - 0.0025 COL00016#15 - 0.0041 COL00017#16 - 0.0033 COL00018#17
           - 0.0044 COL00019#18 - 0.0024 COL00020#19 - 0.0031 COL00021#20
           - 0.01085 COL00022#21 - 0.001 COL00023#22 - 0.0025 COL00024#23
           - 0.0004 COL00025#24 - 0.0015 COL00026#25 - 0.0019 COL00027#26
           - 0.00105 COL00028#27 - 0.0007 COL00029#28 - 0.0006 COL00030#29
           - 0.0011 COL00031#30 - 0.00185 COL00032#31 - 0.00175 COL00033#32
           - 0.00175 COL00034#33 - 0.0013 COL00035#34 - 0.0016 COL00036#35
           - 0.00125 COL00037#36 - 0.0023 COL00038#37 - 0.00165 COL00039#38
           - 0.0022 COL00040#39 - 0.0012 COL00041#40 - 0.00155 COL00042#41
           + 99.9582 COL00043#42 + 100 COL00044#43 + 100 COL00045#44
           + 100 COL00046#45 + 100 COL00047#46 + 100 COL00048#47
           + 100 COL00049#48 + 100 COL00050#49 + 100 COL00051#50
           + 100 COL00052#51 + 100 COL00053#52 + 100 COL00054#53
           + 100 COL00055#54 + 100 COL00056#55 + 100 COL00057#56
           + 100 COL00058#57 + 100 COL00059#58 + 100 COL00060#59
           + 100 COL00061#60 + 100 COL00062#61 + 100 COL00063#62 + _eta_1#63
           + _eta_2#64 + _eta_3#65 + _eta_4#66 + _eta_5#67 + _eta_6#68
           + _eta_7#69 + _eta_8#70 + _eta_9#71 + _eta_10#72 + _eta_11#73
           + _eta_12#74 + _eta_13#75 + _eta_14#76 + _eta_15#77 + _eta_16#78
           + _eta_17#79 + _eta_18#80 + _eta_19#81 + _eta_20#82 + _eta_21#83
           + _eta_22#84 + _eta_23#85 + _eta_24#86 + _eta_25#87 + _eta_26#88
           + _eta_27#89 + _eta_28#90 + _eta_29#91 + _eta_30#92 + _eta_31#93
           + _eta_32#94 + _eta_33#95 + _eta_34#96 + _eta_35#97 + _eta_36#98
           + _eta_37#99 + _eta_38#100 + _eta_39#101 + _eta_40#102 + _eta_41#103
           + _eta_42#104 + _eta_43#105 + _eta_44#106 + _eta_45#107
           + _eta_46#108 + _eta_47#109 + _eta_48#110 + _eta_49#111
           + _eta_50#112 + _eta_51#113 + _eta_52#114 + _eta_53#115
           + _eta_54#116 + _eta_55#117 + _eta_56#118 + _eta_57#119
           + _eta_58#120 + _eta_59#121 + _eta_60#122 + _eta_61#123
           + _eta_62#124 + _eta_63#125 + _eta_64#126 + _eta_65#127
           + _eta_66#128 + _eta_67#129 + _eta_68#130 + _eta_69#131
           + _eta_70#132 + _eta_71#133 + _eta_72#134 + _eta_73#135
           + _eta_74#136 + _eta_75#137 + _eta_76#138 + _eta_77#139
           + _eta_78#140 + _eta_79#141 + _eta_80#142 + _eta_81#143
           + _eta_82#144 + _eta_83#145 + _eta_84#146 + _eta_85#147
           + _eta_86#148 + _eta_87#149 + _eta_88#150 + _eta_89#151
           + _eta_90#152 + _eta_91#153 + _eta_92#154 + _eta_93#155
           + _eta_94#156 + _eta_95#157 + _eta_96#158 + _eta_97#159
           + _eta_98#160 + _eta_99#161 + _eta_100#162 + [ 0.0001 COL00001#0 ^2
           + 0.0001 COL00002#1 ^2 + 0.0001 COL00003#2 ^2 + 0.0001 COL00004#3 ^2
           + 0.0001 COL00005#4 ^2 + 0.0001 COL00006#5 ^2 + 0.0001 COL00007#6 ^2
           + 0.0001 COL00008#7 ^2 + 0.0001 COL00009#8 ^2 + 0.0001 COL00010#9 ^2
           + 0.0001 COL00011#10 ^2 + 0.0001 COL00012#11 ^2
           + 0.0001 COL00013#12 ^2 + 0.0001 COL00014#13 ^2
           + 0.0001 COL00015#14 ^2 + 0.0001 COL00016#15 ^2
           + 0.0001 COL00017#16 ^2 + 0.0001 COL00018#17 ^2
           + 0.0001 COL00019#18 ^2 + 0.0001 COL00020#19 ^2
           + 0.0001 COL00021#20 ^2 + 0.0001 COL00022#21 ^2
           + 0.0001 COL00023#22 ^2 + 0.0001 COL00024#23 ^2
           + 0.0001 COL00025#24 ^2 + 0.0001 COL00026#25 ^2
           + 0.0001 COL00027#26 ^2 + 0.0001 COL00028#27 ^2
           + 0.0001 COL00029#28 ^2 + 0.0001 COL00030#29 ^2
           + 0.0001 COL00031#30 ^2 + 0.0001 COL00032#31 ^2
           + 0.0001 COL00033#32 ^2 + 0.0001 COL00034#33 ^2
           + 0.0001 COL00035#34 ^2 + 0.0001 COL00036#35 ^2
           + 0.0001 COL00037#36 ^2 + 0.0001 COL00038#37 ^2
           + 0.0001 COL00039#38 ^2 + 0.0001 COL00040#39 ^2
           + 0.0001 COL00041#40 ^2 + 0.0001 COL00042#41 ^2
           + 0.0001 COL00043#42 ^2 + 0.0001 COL00044#43 ^2
           + 0.0001 COL00045#44 ^2 + 0.0001 COL00046#45 ^2
           + 0.0001 COL00047#46 ^2 + 0.0001 COL00048#47 ^2
           + 0.0001 COL00049#48 ^2 + 0.0001 COL00050#49 ^2
           + 0.0001 COL00051#50 ^2 + 0.0001 COL00052#51 ^2
           + 0.0001 COL00053#52 ^2 + 0.0001 COL00054#53 ^2
           + 0.0001 COL00055#54 ^2 + 0.0001 COL00056#55 ^2
           + 0.0001 COL00057#56 ^2 + 0.0001 COL00058#57 ^2
           + 0.0001 COL00059#58 ^2 + 0.0001 COL00060#59 ^2
           + 0.0001 COL00061#60 ^2 + 0.0001 COL00062#61 ^2
           + 0.0001 COL00063#62 ^2 ] / 2 + 10.53385
Subject To
 ROW00001: COL00001#0 + COL00002#1 + COL00003#2 + COL00004#3 + COL00005#4
           + COL00006#5 + COL00007#6 + COL00008#7 + COL00009#8 + COL00010#9
           + COL00011#10 + COL00012#11 + COL00013#12 + COL00014#13
           + COL00015#14 + COL00016#15 + COL00017#16 + COL00018#17
           + COL00019#18 + COL00020#19 + COL00021#20  = 600
 ROW00002: COL00022#21 + COL00023#22 + COL00024#23 + COL00025#24 + COL00026#25
           + COL00027#26 + COL00028#27 + COL00029#28 + COL00030#29
           + COL00031#30 + COL00032#31 + COL00033#32 + COL00034#33
           + COL00035#34 + COL00036#35 + COL00037#36 + COL00038#37
           + COL00039#38 + COL00040#39 + COL00041#40 + COL00042#41  = 400
 ROW00003: COL00043#42 + COL00044#43 + COL00045#44 + COL00046#45 + COL00047#46
           + COL00048#47 + COL00049#48 + COL00050#49 + COL00051#50
           + COL00052#51 + COL00053#52 + COL00054#53 + COL00055#54
           + COL00056#55 + COL00057#56 + COL00058#57 + COL00059#58
           + COL00060#59 + COL00061#60 + COL00062#61 + COL00063#62 <= 10000
Bounds
-99999999999 <= _eta_1#63 <= 99999999999
-99999999999 <= _eta_2#64 <= 99999999999
-99999999999 <= _eta_3#65 <= 99999999999
-99999999999 <= _eta_4#66 <= 99999999999
-99999999999 <= _eta_5#67 <= 99999999999
-99999999999 <= _eta_6#68 <= 99999999999
-99999999999 <= _eta_7#69 <= 99999999999
-99999999999 <= _eta_8#70 <= 99999999999
-99999999999 <= _eta_9#71 <= 99999999999
-99999999999 <= _eta_10#72 <= 99999999999
-99999999999 <= _eta_11#73 <= 99999999999
-99999999999 <= _eta_12#74 <= 99999999999
-99999999999 <= _eta_13#75 <= 99999999999
-99999999999 <= _eta_14#76 <= 99999999999
-99999999999 <= _eta_15#77 <= 99999999999
-99999999999 <= _eta_16#78 <= 99999999999
-99999999999 <= _eta_17#79 <= 99999999999
-99999999999 <= _eta_18#80 <= 99999999999
-99999999999 <= _eta_19#81 <= 99999999999
-99999999999 <= _eta_20#82 <= 99999999999
-99999999999 <= _eta_21#83 <= 99999999999
-99999999999 <= _eta_22#84 <= 99999999999
-99999999999 <= _eta_23#85 <= 99999999999
-99999999999 <= _eta_24#86 <= 99999999999
-99999999999 <= _eta_25#87 <= 99999999999
-99999999999 <= _eta_26#88 <= 99999999999
-99999999999 <= _eta_27#89 <= 99999999999
-99999999999 <= _eta_28#90 <= 99999999999
-99999999999 <= _eta_29#91 <= 99999999999
-99999999999 <= _eta_30#92 <= 99999999999
-99999999999 <= _eta_31#93 <= 99999999999
-99999999999 <= _eta_32#94 <= 99999999999
-99999999999 <= _eta_33#95 <= 99999999999
-99999999999 <= _eta_34#96 <= 99999999999
-99999999999 <= _eta_35#97 <= 99999999999
-99999999999 <= _eta_36#98 <= 99999999999
-99999999999 <= _eta_37#99 <= 99999999999
-99999999999 <= _eta_38#100 <= 99999999999
-99999999999 <= _eta_39#101 <= 99999999999
-99999999999 <= _eta_40#102 <= 99999999999
-99999999999 <= _eta_41#103 <= 99999999999
-99999999999 <= _eta_42#104 <= 99999999999
-99999999999 <= _eta_43#105 <= 99999999999
-99999999999 <= _eta_44#106 <= 99999999999
-99999999999 <= _eta_45#107 <= 99999999999
-99999999999 <= _eta_46#108 <= 99999999999
-99999999999 <= _eta_47#109 <= 99999999999
-99999999999 <= _eta_48#110 <= 99999999999
-99999999999 <= _eta_49#111 <= 99999999999
-99999999999 <= _eta_50#112 <= 99999999999
-99999999999 <= _eta_51#113 <= 99999999999
-99999999999 <= _eta_52#114 <= 99999999999
-99999999999 <= _eta_53#115 <= 99999999999
-99999999999 <= _eta_54#116 <= 99999999999
-99999999999 <= _eta_55#117 <= 99999999999
-99999999999 <= _eta_56#118 <= 99999999999
-99999999999 <= _eta_57#119 <= 99999999999
-99999999999 <= _eta_58#120 <= 99999999999
-99999999999 <= _eta_59#121 <= 99999999999
-99999999999 <= _eta_60#122 <= 99999999999
-99999999999 <= _eta_61#123 <= 99999999999
-99999999999 <= _eta_62#124 <= 99999999999
-99999999999 <= _eta_63#125 <= 99999999999
-99999999999 <= _eta_64#126 <= 99999999999
-99999999999 <= _eta_65#127 <= 99999999999
-99999999999 <= _eta_66#128 <= 99999999999
-99999999999 <= _eta_67#129 <= 99999999999
-99999999999 <= _eta_68#130 <= 99999999999
-99999999999 <= _eta_69#131 <= 99999999999
-99999999999 <= _eta_70#132 <= 99999999999
-99999999999 <= _eta_71#133 <= 99999999999
-99999999999 <= _eta_72#134 <= 99999999999
-99999999999 <= _eta_73#135 <= 99999999999
-99999999999 <= _eta_74#136 <= 99999999999
-99999999999 <= _eta_75#137 <= 99999999999
-99999999999 <= _eta_76#138 <= 99999999999
-99999999999 <= _eta_77#139 <= 99999999999
-99999999999 <= _eta_78#140 <= 99999999999
-99999999999 <= _eta_79#141 <= 99999999999
-99999999999 <= _eta_80#142 <= 99999999999
-99999999999 <= _eta_81#143 <= 99999999999
-99999999999 <= _eta_82#144 <= 99999999999
-99999999999 <= _eta_83#145 <= 99999999999
-99999999999 <= _eta_84#146 <= 99999999999
-99999999999 <= _eta_85#147 <= 99999999999
-99999999999 <= _eta_86#148 <= 99999999999
-99999999999 <= _eta_87#149 <= 99999999999
-99999999999 <= _eta_88#150 <= 99999999999
-99999999999 <= _eta_89#151 <= 99999999999
-99999999999 <= _eta_90#152 <= 99999999999
-99999999999 <= _eta_91#153 <= 99999999999
-99999999999 <= _eta_92#154 <= 99999999999
-99999999999 <= _eta_93#155 <= 99999999999
-99999999999 <= _eta_94#156 <= 99999999999
-99999999999 <= _eta_95#157 <= 99999999999
-99999999999 <= _eta_96#158 <= 99999999999
-99999999999 <= _eta_97#159 <= 99999999999
-99999999999 <= _eta_98#160 <= 99999999999
-99999999999 <= _eta_99#161 <= 99999999999
-99999999999 <= _eta_100#162 <= 99999999999
End
